NAME : st70
TYPE : OP
DIMENSION : 70
COST_LIMIT : 338
ROUTE_NODES : 43
ROUTE_SCORE : 43
ROUTE_COST : 336
NODE_SEQUENCE_SECTION
1
36
29
13
70
31
69
38
59
22
66
63
57
15
24
19
26
8
28
3
32
7
2
4
18
42
6
41
43
17
21
34
12
33
60
52
10
50
58
37
47
16
23
-1
DEPOT_SECTION
1
-1
EOF
